p cnf 82 10000 
1 2 3 4 5 0
6 7 8 9 10 0
11 12 13 14 15 0
-6 -11 0
-6 -16 0
-6 -21 0
-11 -16 0
-11 -21 0
-16 -21 0
-7 -12 0
-7 -17 0
-7 -22 0
-12 -17 0
-12 -22 0
-17 -22 0
-8 -13 0
-8 -18 0
-8 -23 0
-13 -18 0
-13 -23 0
-18 -23 0
1 2 4 7 0
3 5 8 0
6 9 0
-1 -2 0
-1 -4 0
-1 -7 0
-2 -4 0
-2 -7 0
-4 -7 0
-3 -5 0
-3 -8 0
-5 -8 0
-6 -9 0
1 2 4 7 0
3 5 8 0
6 9 0
-1 -2 0
-1 -4 0
-1 -7 0
-2 -4 0
-2 -7 0
-4 -7 0
-3 -5 0
-3 -8 0
-5 -8 0
-6 -9 0
-1 -1 0
-2 -2 -3 -3 0
-4 -4 -5 -5 -6 -6 0
-7 -7 -8 -8 -9 -9 -10 -10 0
-2 -2 0
-2 -2 0
-2 -2 0
-2 -2 0
-3 -2 0
-3 -2 0
-3 -2 0
-3 -2 0
-2 -3 0
-2 -3 0
-2 -3 0
-2 -3 0
-3 -3 0
-3 -3 0
-3 -3 0
-3 -3 0
-1 -3 -6 2 0
-1 -3 -7 2 0
-1 -3 -8 2 0
-1 -3 -9 2 0
-1 -3 -10 2 0
-1 -5 -6 1 0
-1 -5 -7 1 0
-1 -5 -8 1 0
-1 -5 -9 1 0
-1 -5 -10 1 0
-1 -8 -6 11 0
-1 -8 -7 11 0
-1 -8 -8 11 0
-1 -8 -9 11 0
-1 -8 -10 11 0
-2 -6 -11 1 0
-2 -6 -12 1 0
-2 -6 -13 1 0
-2 -6 -14 1 0
-2 -6 -15 1 0
-2 -9 -11 11 0
-2 -9 -12 11 0
-2 -9 -13 11 0
-2 -9 -14 11 0
-2 -9 -15 11 0
-3 -3 -6 4 0
-3 -3 -7 4 0
-3 -3 -8 4 0
-3 -3 -9 4 0
-3 -3 -10 4 0
-3 -5 -6 2 0
-3 -5 -7 2 0
-3 -5 -8 2 0
-3 -5 -9 2 0
-3 -5 -10 2 0
-3 -8 -6 12 0
-3 -8 -7 12 0
-3 -8 -8 12 0
-3 -8 -9 12 0
-3 -8 -10 12 0
-4 -6 -11 2 0
-4 -6 -12 2 0
-4 -6 -13 2 0
-4 -6 -14 2 0
-4 -6 -15 2 0
-4 -9 -11 12 0
-4 -9 -12 12 0
-4 -9 -13 12 0
-4 -9 -14 12 0
-4 -9 -15 12 0
-5 -3 -6 6 0
-5 -3 -7 6 0
-5 -3 -8 6 0
-5 -3 -9 6 0
-5 -3 -10 6 0
-5 -5 -6 3 0
-5 -5 -7 3 0
-5 -5 -8 3 0
-5 -5 -9 3 0
-5 -5 -10 3 0
-5 -8 -6 13 0
-5 -8 -7 13 0
-5 -8 -8 13 0
-5 -8 -9 13 0
-5 -8 -10 13 0
-6 -6 -11 3 0
-6 -6 -12 3 0
-6 -6 -13 3 0
-6 -6 -14 3 0
-6 -6 -15 3 0
-6 -9 -11 13 0
-6 -9 -12 13 0
-6 -9 -13 13 0
-6 -9 -14 13 0
-6 -9 -15 13 0
-7 -3 -6 8 0
-7 -3 -7 8 0
-7 -3 -8 8 0
-7 -3 -9 8 0
-7 -3 -10 8 0
-7 -5 -6 4 0
-7 -5 -7 4 0
-7 -5 -8 4 0
-7 -5 -9 4 0
-7 -5 -10 4 0
-7 -8 -6 14 0
-7 -8 -7 14 0
-7 -8 -8 14 0
-7 -8 -9 14 0
-7 -8 -10 14 0
-8 -6 -11 4 0
-8 -6 -12 4 0
-8 -6 -13 4 0
-8 -6 -14 4 0
-8 -6 -15 4 0
-8 -9 -11 14 0
-8 -9 -12 14 0
-8 -9 -13 14 0
-8 -9 -14 14 0
-8 -9 -15 14 0
-9 -3 -6 10 0
-9 -3 -7 10 0
-9 -3 -8 10 0
-9 -3 -9 10 0
-9 -3 -10 10 0
-9 -5 -6 5 0
-9 -5 -7 5 0
-9 -5 -8 5 0
-9 -5 -9 5 0
-9 -5 -10 5 0
-9 -8 -6 15 0
-9 -8 -7 15 0
-9 -8 -8 15 0
-9 -8 -9 15 0
-9 -8 -10 15 0
-10 -6 -11 5 0
-10 -6 -12 5 0
-10 -6 -13 5 0
-10 -6 -14 5 0
-10 -6 -15 5 0
-10 -9 -11 15 0
-10 -9 -12 15 0
-10 -9 -13 15 0
-10 -9 -14 15 0
-10 -9 -15 15 0
-11 -3 -6 12 0
-11 -3 -7 12 0
-11 -3 -8 12 0
-11 -3 -9 12 0
-11 -3 -10 12 0
-11 -5 -6 6 0
-11 -5 -7 6 0
-11 -5 -8 6 0
-11 -5 -9 6 0
-11 -5 -10 6 0
-11 -8 -6 16 0
-11 -8 -7 16 0
-11 -8 -8 16 0
-11 -8 -9 16 0
-11 -8 -10 16 0
-12 -6 -11 6 0
-12 -6 -12 6 0
-12 -6 -13 6 0
-12 -6 -14 6 0
-12 -6 -15 6 0
-12 -9 -11 16 0
-12 -9 -12 16 0
-12 -9 -13 16 0
-12 -9 -14 16 0
-12 -9 -15 16 0
-13 -3 -6 14 0
-13 -3 -7 14 0
-13 -3 -8 14 0
-13 -3 -9 14 0
-13 -3 -10 14 0
-13 -5 -6 7 0
-13 -5 -7 7 0
-13 -5 -8 7 0
-13 -5 -9 7 0
-13 -5 -10 7 0
-13 -8 -6 17 0
-13 -8 -7 17 0
-13 -8 -8 17 0
-13 -8 -9 17 0
-13 -8 -10 17 0
-14 -6 -11 7 0
-14 -6 -12 7 0
-14 -6 -13 7 0
-14 -6 -14 7 0
-14 -6 -15 7 0
-14 -9 -11 17 0
-14 -9 -12 17 0
-14 -9 -13 17 0
-14 -9 -14 17 0
-14 -9 -15 17 0
-15 -3 -6 16 0
-15 -3 -7 16 0
-15 -3 -8 16 0
-15 -3 -9 16 0
-15 -3 -10 16 0
-15 -5 -6 8 0
-15 -5 -7 8 0
-15 -5 -8 8 0
-15 -5 -9 8 0
-15 -5 -10 8 0
-15 -8 -6 18 0
-15 -8 -7 18 0
-15 -8 -8 18 0
-15 -8 -9 18 0
-15 -8 -10 18 0
-16 -6 -11 8 0
-16 -6 -12 8 0
-16 -6 -13 8 0
-16 -6 -14 8 0
-16 -6 -15 8 0
-16 -9 -11 18 0
-16 -9 -12 18 0
-16 -9 -13 18 0
-16 -9 -14 18 0
-16 -9 -15 18 0
-17 -3 -6 18 0
-17 -3 -7 18 0
-17 -3 -8 18 0
-17 -3 -9 18 0
-17 -3 -10 18 0
-17 -5 -6 9 0
-17 -5 -7 9 0
-17 -5 -8 9 0
-17 -5 -9 9 0
-17 -5 -10 9 0
-17 -8 -6 19 0
-17 -8 -7 19 0
-17 -8 -8 19 0
-17 -8 -9 19 0
-17 -8 -10 19 0
-18 -6 -11 9 0
-18 -6 -12 9 0
-18 -6 -13 9 0
-18 -6 -14 9 0
-18 -6 -15 9 0
-18 -9 -11 19 0
-18 -9 -12 19 0
-18 -9 -13 19 0
-18 -9 -14 19 0
-18 -9 -15 19 0
-19 -3 -6 20 0
-19 -3 -7 20 0
-19 -3 -8 20 0
-19 -3 -9 20 0
-19 -3 -10 20 0
-19 -5 -6 10 0
-19 -5 -7 10 0
-19 -5 -8 10 0
-19 -5 -9 10 0
-19 -5 -10 10 0
-19 -8 -6 20 0
-19 -8 -7 20 0
-19 -8 -8 20 0
-19 -8 -9 20 0
-19 -8 -10 20 0
-20 -6 -11 10 0
-20 -6 -12 10 0
-20 -6 -13 10 0
-20 -6 -14 10 0
-20 -6 -15 10 0
-20 -9 -11 20 0
-20 -9 -12 20 0
-20 -9 -13 20 0
-20 -9 -14 20 0
-20 -9 -15 20 0
-1 -1 1 0
-1 -2 1 0
-1 -3 1 0
-1 -4 1 0
-1 -5 1 0
-2 -1 2 0
-2 -2 2 0
-2 -3 2 0
-2 -4 2 0
-2 -5 2 0
-4 -1 1 0
-4 -2 1 0
-4 -3 1 0
-4 -4 1 0
-4 -5 1 0
-7 -1 11 0
-7 -2 11 0
-7 -3 11 0
-7 -4 11 0
-7 -5 11 0
-1 -1 3 0
-1 -2 3 0
-1 -3 3 0
-1 -4 3 0
-1 -5 3 0
-2 -1 4 0
-2 -2 4 0
-2 -3 4 0
-2 -4 4 0
-2 -5 4 0
-4 -1 2 0
-4 -2 2 0
-4 -3 2 0
-4 -4 2 0
-4 -5 2 0
-7 -1 12 0
-7 -2 12 0
-7 -3 12 0
-7 -4 12 0
-7 -5 12 0
-1 -1 5 0
-1 -2 5 0
-1 -3 5 0
-1 -4 5 0
-1 -5 5 0
-2 -1 6 0
-2 -2 6 0
-2 -3 6 0
-2 -4 6 0
-2 -5 6 0
-4 -1 3 0
-4 -2 3 0
-4 -3 3 0
-4 -4 3 0
-4 -5 3 0
-7 -1 13 0
-7 -2 13 0
-7 -3 13 0
-7 -4 13 0
-7 -5 13 0
-1 -1 7 0
-1 -2 7 0
-1 -3 7 0
-1 -4 7 0
-1 -5 7 0
-2 -1 8 0
-2 -2 8 0
-2 -3 8 0
-2 -4 8 0
-2 -5 8 0
-4 -1 4 0
-4 -2 4 0
-4 -3 4 0
-4 -4 4 0
-4 -5 4 0
-7 -1 14 0
-7 -2 14 0
-7 -3 14 0
-7 -4 14 0
-7 -5 14 0
-1 -1 9 0
-1 -2 9 0
-1 -3 9 0
-1 -4 9 0
-1 -5 9 0
-2 -1 10 0
-2 -2 10 0
-2 -3 10 0
-2 -4 10 0
-2 -5 10 0
-4 -1 5 0
-4 -2 5 0
-4 -3 5 0
-4 -4 5 0
-4 -5 5 0
-7 -1 15 0
-7 -2 15 0
-7 -3 15 0
-7 -4 15 0
-7 -5 15 0
-1 -1 11 0
-1 -2 11 0
-1 -3 11 0
-1 -4 11 0
-1 -5 11 0
-2 -1 12 0
-2 -2 12 0
-2 -3 12 0
-2 -4 12 0
-2 -5 12 0
-4 -1 6 0
-4 -2 6 0
-4 -3 6 0
-4 -4 6 0
-4 -5 6 0
-7 -1 16 0
-7 -2 16 0
-7 -3 16 0
-7 -4 16 0
-7 -5 16 0
-1 -1 13 0
-1 -2 13 0
-1 -3 13 0
-1 -4 13 0
-1 -5 13 0
-2 -1 14 0
-2 -2 14 0
-2 -3 14 0
-2 -4 14 0
-2 -5 14 0
-4 -1 7 0
-4 -2 7 0
-4 -3 7 0
-4 -4 7 0
-4 -5 7 0
-7 -1 17 0
-7 -2 17 0
-7 -3 17 0
-7 -4 17 0
-7 -5 17 0
-1 -1 15 0
-1 -2 15 0
-1 -3 15 0
-1 -4 15 0
-1 -5 15 0
-2 -1 16 0
-2 -2 16 0
-2 -3 16 0
-2 -4 16 0
-2 -5 16 0
-4 -1 8 0
-4 -2 8 0
-4 -3 8 0
-4 -4 8 0
-4 -5 8 0
-7 -1 18 0
-7 -2 18 0
-7 -3 18 0
-7 -4 18 0
-7 -5 18 0
-1 -1 17 0
-1 -2 17 0
-1 -3 17 0
-1 -4 17 0
-1 -5 17 0
-2 -1 18 0
-2 -2 18 0
-2 -3 18 0
-2 -4 18 0
-2 -5 18 0
-4 -1 9 0
-4 -2 9 0
-4 -3 9 0
-4 -4 9 0
-4 -5 9 0
-7 -1 19 0
-7 -2 19 0
-7 -3 19 0
-7 -4 19 0
-7 -5 19 0
-1 -1 19 0
-1 -2 19 0
-1 -3 19 0
-1 -4 19 0
-1 -5 19 0
-2 -1 20 0
-2 -2 20 0
-2 -3 20 0
-2 -4 20 0
-2 -5 20 0
-4 -1 10 0
-4 -2 10 0
-4 -3 10 0
-4 -4 10 0
-4 -5 10 0
-7 -1 20 0
-7 -2 20 0
-7 -3 20 0
-7 -4 20 0
-7 -5 20 0
1 0
-11 0
-2 0
12 0
3 0
-13 0
-4 0
14 0
-5 0
15 0
6 0
-16 0
7 0
-17 0
8 0
-18 0
-9 0
19 0
10 0
-20 0
-1 1 1 0
-2 2 2 0
-4 4 4 0
-7 7 7 0
-3 3 3 0
-5 5 5 0
-8 8 8 0
-6 6 6 0
-9 9 9 0
1 -1 0
1 -1 0
2 -2 0
2 -2 0
4 -4 0
4 -4 0
7 -7 0
7 -7 0
3 -3 0
3 -3 0
5 -5 0
5 -5 0
8 -8 0
8 -8 0
6 -6 0
6 -6 0
9 -9 0
9 -9 0
-1 -3 -2 -5 -1 0
-1 -3 -2 -8 -11 0
-1 -5 -1 -8 -11 0
-2 -6 -1 -9 -11 0
-3 -3 -4 -5 -2 0
-3 -3 -4 -8 -12 0
-3 -5 -2 -8 -12 0
-4 -6 -2 -9 -12 0
-5 -3 -6 -5 -3 0
-5 -3 -6 -8 -13 0
-5 -5 -3 -8 -13 0
-6 -6 -3 -9 -13 0
-7 -3 -8 -5 -4 0
-7 -3 -8 -8 -14 0
-7 -5 -4 -8 -14 0
-8 -6 -4 -9 -14 0
-9 -3 -10 -5 -5 0
-9 -3 -10 -8 -15 0
-9 -5 -5 -8 -15 0
-10 -6 -5 -9 -15 0
-11 -3 -12 -5 -6 0
-11 -3 -12 -8 -16 0
-11 -5 -6 -8 -16 0
-12 -6 -6 -9 -16 0
-13 -3 -14 -5 -7 0
-13 -3 -14 -8 -17 0
-13 -5 -7 -8 -17 0
-14 -6 -7 -9 -17 0
-15 -3 -16 -5 -8 0
-15 -3 -16 -8 -18 0
-15 -5 -8 -8 -18 0
-16 -6 -8 -9 -18 0
-17 -3 -18 -5 -9 0
-17 -3 -18 -8 -19 0
-17 -5 -9 -8 -19 0
-18 -6 -9 -9 -19 0
-19 -3 -20 -5 -10 0
-19 -3 -20 -8 -20 0
-19 -5 -10 -8 -20 0
-20 -6 -10 -9 -20 0
 -1 -1 -2 -2 0
 -1 -1 -4 -1 0
 -1 -1 -7 -11 0
 -2 -2 -4 -1 0
 -2 -2 -7 -11 0
 -4 -1 -7 -11 0
 -1 -3 -2 -4 0
 -1 -3 -4 -2 0
 -1 -3 -7 -12 0
 -2 -4 -4 -2 0
 -2 -4 -7 -12 0
 -4 -2 -7 -12 0
 -1 -5 -2 -6 0
 -1 -5 -4 -3 0
 -1 -5 -7 -13 0
 -2 -6 -4 -3 0
 -2 -6 -7 -13 0
 -4 -3 -7 -13 0
 -1 -7 -2 -8 0
 -1 -7 -4 -4 0
 -1 -7 -7 -14 0
 -2 -8 -4 -4 0
 -2 -8 -7 -14 0
 -4 -4 -7 -14 0
 -1 -9 -2 -10 0
 -1 -9 -4 -5 0
 -1 -9 -7 -15 0
 -2 -10 -4 -5 0
 -2 -10 -7 -15 0
 -4 -5 -7 -15 0
 -1 -11 -2 -12 0
 -1 -11 -4 -6 0
 -1 -11 -7 -16 0
 -2 -12 -4 -6 0
 -2 -12 -7 -16 0
 -4 -6 -7 -16 0
 -1 -13 -2 -14 0
 -1 -13 -4 -7 0
 -1 -13 -7 -17 0
 -2 -14 -4 -7 0
 -2 -14 -7 -17 0
 -4 -7 -7 -17 0
 -1 -15 -2 -16 0
 -1 -15 -4 -8 0
 -1 -15 -7 -18 0
 -2 -16 -4 -8 0
 -2 -16 -7 -18 0
 -4 -8 -7 -18 0
 -1 -17 -2 -18 0
 -1 -17 -4 -9 0
 -1 -17 -7 -19 0
 -2 -18 -4 -9 0
 -2 -18 -7 -19 0
 -4 -9 -7 -19 0
 -1 -19 -2 -20 0
 -1 -19 -4 -10 0
 -1 -19 -7 -20 0
 -2 -20 -4 -10 0
 -2 -20 -7 -20 0
 -4 -10 -7 -20 0
-1 -2 2 0
-1 -1 1 0
-1 1 11 0
-2 -2 1 0
-2 0 11 0
-3 -2 4 0
-3 -1 2 0
-3 1 12 0
-4 -2 2 0
-4 0 12 0
-5 -2 6 0
-5 -1 3 0
-5 1 13 0
-6 -2 3 0
-6 0 13 0
-7 -2 8 0
-7 -1 4 0
-7 1 14 0
-8 -2 4 0
-8 0 14 0
-9 -2 10 0
-9 -1 5 0
-9 1 15 0
-10 -2 5 0
-10 0 15 0
-11 -2 12 0
-11 -1 6 0
-11 1 16 0
-12 -2 6 0
-12 0 16 0
-13 -2 14 0
-13 -1 7 0
-13 1 17 0
-14 -2 7 0
-14 0 17 0
-15 -2 16 0
-15 -1 8 0
-15 1 18 0
-16 -2 8 0
-16 0 18 0
-17 -2 18 0
-17 -1 9 0
-17 1 19 0
-18 -2 9 0
-18 0 19 0
-19 -2 20 0
-19 -1 10 0
-19 1 20 0
-20 -2 10 0
-20 0 20 0
